nbObj= 50;
Capacity= 605;
Profit =[ 58,96,83,19,25,18,39,47,92,10,59,27,70,31,103,74,81,103,80,108,75,34,48,90,76,26,92,44,93,63,67,58,74,13,19,95,49,44,11,38,36,57,20,25,79,44,93,61,100,56];
Weight =[ 84,211,54,108,211,78,193,139,84,199,151,175,48,78,36,102,121,181,60,211,133,145,78,114,175,181,54,66,30,163,193,90,121,205,84,151,54,66,90,181,205,133,36,66,66,42,36,84,108,36];
